NAME: generated_10_asym_1_100_UniformDistrib_noSparse.tsp
TYPE: TSP
COMMENT: Test case generated with custom generator!
DIMENSION: 10
EDGE_WEIGHT_TYPE: EXPLICIT
EDGE_WEIGHT_FORMAT: FULL_MATRIX
DISPLAY_DATA_TYPE: TWOD_DISPLAY
EDGE_WEIGHT_SECTION
0 84 21 26 18 82 61 91 27 60 
4 0 9 27 30 42 66 30 68 38 
71 79 0 30 59 10 97 56 77 27 
76 65 55 0 47 52 65 57 90 89 
40 29 87 31 0 32 29 18 18 46 
63 98 78 26 22 0 46 11 33 30 
34 39 9 93 87 70 0 81 68 43 
16 95 81 2 74 59 73 0 7 42 
8 18 75 5 42 60 66 72 0 91 
37 7 36 95 96 41 98 77 22 0 
